c description: Tseitin formula on , with odd charge
c generator: CNFgen (0.9.0)
c copyright: (C) 2012-2020 Massimo Lauria <massimo.lauria@uniroma1.it>
c url: https://massimolauria.net/cnfgen
c
p cnf 40 256
1 2 3 4 0
1 2 -3 -4 0
1 -2 3 -4 0
1 -2 -3 4 0
-1 2 3 -4 0
-1 2 -3 4 0
-1 -2 3 4 0
-1 -2 -3 -4 0
5 6 7 -8 0
5 6 -7 8 0
5 -6 7 8 0
5 -6 -7 -8 0
-5 6 7 8 0
-5 6 -7 -8 0
-5 -6 7 -8 0
-5 -6 -7 8 0
9 10 11 12 -13 0
9 10 11 -12 13 0
9 10 -11 12 13 0
9 10 -11 -12 -13 0
9 -10 11 12 13 0
9 -10 11 -12 -13 0
9 -10 -11 12 -13 0
9 -10 -11 -12 13 0
-9 10 11 12 13 0
-9 10 11 -12 -13 0
-9 10 -11 12 -13 0
-9 10 -11 -12 13 0
-9 -10 11 12 -13 0
-9 -10 11 -12 13 0
-9 -10 -11 12 13 0
-9 -10 -11 -12 -13 0
14 15 16 17 -18 0
14 15 16 -17 18 0
14 15 -16 17 18 0
14 15 -16 -17 -18 0
14 -15 16 17 18 0
14 -15 16 -17 -18 0
14 -15 -16 17 -18 0
14 -15 -16 -17 18 0
-14 15 16 17 18 0
-14 15 16 -17 -18 0
-14 15 -16 17 -18 0
-14 15 -16 -17 18 0
-14 -15 16 17 -18 0
-14 -15 16 -17 18 0
-14 -15 -16 17 18 0
-14 -15 -16 -17 -18 0
-19 0
9 14 20 21 -22 0
9 14 20 -21 22 0
9 14 -20 21 22 0
9 14 -20 -21 -22 0
9 -14 20 21 22 0
9 -14 20 -21 -22 0
9 -14 -20 21 -22 0
9 -14 -20 -21 22 0
-9 14 20 21 22 0
-9 14 20 -21 -22 0
-9 14 -20 21 -22 0
-9 14 -20 -21 22 0
-9 -14 20 21 -22 0
-9 -14 20 -21 22 0
-9 -14 -20 21 22 0
-9 -14 -20 -21 -22 0
5 20 23 -24 0
5 20 -23 24 0
5 -20 23 24 0
5 -20 -23 -24 0
-5 20 23 24 0
-5 20 -23 -24 0
-5 -20 23 -24 0
-5 -20 -23 24 0
6 -25 0
-6 25 0
23 26 -27 0
23 -26 27 0
-23 26 27 0
-23 -26 -27 0
1 15 21 -28 0
1 15 -21 28 0
1 -15 21 28 0
1 -15 -21 -28 0
-1 15 21 28 0
-1 15 -21 -28 0
-1 -15 21 -28 0
-1 -15 -21 28 0
-16 0
7 17 29 30 -31 0
7 17 29 -30 31 0
7 17 -29 30 31 0
7 17 -29 -30 -31 0
7 -17 29 30 31 0
7 -17 29 -30 -31 0
7 -17 -29 30 -31 0
7 -17 -29 -30 31 0
-7 17 29 30 31 0
-7 17 29 -30 -31 0
-7 17 -29 30 -31 0
-7 17 -29 -30 31 0
-7 -17 29 30 -31 0
-7 -17 29 -30 31 0
-7 -17 -29 30 31 0
-7 -17 -29 -30 -31 0
10 18 32 -33 0
10 18 -32 33 0
10 -18 32 33 0
10 -18 -32 -33 0
-10 18 32 33 0
-10 18 -32 -33 0
-10 -18 32 -33 0
-10 -18 -32 33 0
24 26 34 -35 0
24 26 -34 35 0
24 -26 34 35 0
24 -26 -34 -35 0
-24 26 34 35 0
-24 26 -34 -35 0
-24 -26 34 -35 0
-24 -26 -34 35 0
8 19 22 34 36 -37 0
8 19 22 34 -36 37 0
8 19 22 -34 36 37 0
8 19 22 -34 -36 -37 0
8 19 -22 34 36 37 0
8 19 -22 34 -36 -37 0
8 19 -22 -34 36 -37 0
8 19 -22 -34 -36 37 0
8 -19 22 34 36 37 0
8 -19 22 34 -36 -37 0
8 -19 22 -34 36 -37 0
8 -19 22 -34 -36 37 0
8 -19 -22 34 36 -37 0
8 -19 -22 34 -36 37 0
8 -19 -22 -34 36 37 0
8 -19 -22 -34 -36 -37 0
-8 19 22 34 36 37 0
-8 19 22 34 -36 -37 0
-8 19 22 -34 36 -37 0
-8 19 22 -34 -36 37 0
-8 19 -22 34 36 -37 0
-8 19 -22 34 -36 37 0
-8 19 -22 -34 36 37 0
-8 19 -22 -34 -36 -37 0
-8 -19 22 34 36 -37 0
-8 -19 22 34 -36 37 0
-8 -19 22 -34 36 37 0
-8 -19 22 -34 -36 -37 0
-8 -19 -22 34 36 37 0
-8 -19 -22 34 -36 -37 0
-8 -19 -22 -34 36 -37 0
-8 -19 -22 -34 -36 37 0
2 25 27 32 35 36 -38 0
2 25 27 32 35 -36 38 0
2 25 27 32 -35 36 38 0
2 25 27 32 -35 -36 -38 0
2 25 27 -32 35 36 38 0
2 25 27 -32 35 -36 -38 0
2 25 27 -32 -35 36 -38 0
2 25 27 -32 -35 -36 38 0
2 25 -27 32 35 36 38 0
2 25 -27 32 35 -36 -38 0
2 25 -27 32 -35 36 -38 0
2 25 -27 32 -35 -36 38 0
2 25 -27 -32 35 36 -38 0
2 25 -27 -32 35 -36 38 0
2 25 -27 -32 -35 36 38 0
2 25 -27 -32 -35 -36 -38 0
2 -25 27 32 35 36 38 0
2 -25 27 32 35 -36 -38 0
2 -25 27 32 -35 36 -38 0
2 -25 27 32 -35 -36 38 0
2 -25 27 -32 35 36 -38 0
2 -25 27 -32 35 -36 38 0
2 -25 27 -32 -35 36 38 0
2 -25 27 -32 -35 -36 -38 0
2 -25 -27 32 35 36 -38 0
2 -25 -27 32 35 -36 38 0
2 -25 -27 32 -35 36 38 0
2 -25 -27 32 -35 -36 -38 0
2 -25 -27 -32 35 36 38 0
2 -25 -27 -32 35 -36 -38 0
2 -25 -27 -32 -35 36 -38 0
2 -25 -27 -32 -35 -36 38 0
-2 25 27 32 35 36 38 0
-2 25 27 32 35 -36 -38 0
-2 25 27 32 -35 36 -38 0
-2 25 27 32 -35 -36 38 0
-2 25 27 -32 35 36 -38 0
-2 25 27 -32 35 -36 38 0
-2 25 27 -32 -35 36 38 0
-2 25 27 -32 -35 -36 -38 0
-2 25 -27 32 35 36 -38 0
-2 25 -27 32 35 -36 38 0
-2 25 -27 32 -35 36 38 0
-2 25 -27 32 -35 -36 -38 0
-2 25 -27 -32 35 36 38 0
-2 25 -27 -32 35 -36 -38 0
-2 25 -27 -32 -35 36 -38 0
-2 25 -27 -32 -35 -36 38 0
-2 -25 27 32 35 36 -38 0
-2 -25 27 32 35 -36 38 0
-2 -25 27 32 -35 36 38 0
-2 -25 27 32 -35 -36 -38 0
-2 -25 27 -32 35 36 38 0
-2 -25 27 -32 35 -36 -38 0
-2 -25 27 -32 -35 36 -38 0
-2 -25 27 -32 -35 -36 38 0
-2 -25 -27 32 35 36 38 0
-2 -25 -27 32 35 -36 -38 0
-2 -25 -27 32 -35 36 -38 0
-2 -25 -27 32 -35 -36 38 0
-2 -25 -27 -32 35 36 -38 0
-2 -25 -27 -32 35 -36 38 0
-2 -25 -27 -32 -35 36 38 0
-2 -25 -27 -32 -35 -36 -38 0
11 29 33 37 -39 0
11 29 33 -37 39 0
11 29 -33 37 39 0
11 29 -33 -37 -39 0
11 -29 33 37 39 0
11 -29 33 -37 -39 0
11 -29 -33 37 -39 0
11 -29 -33 -37 39 0
-11 29 33 37 39 0
-11 29 33 -37 -39 0
-11 29 -33 37 -39 0
-11 29 -33 -37 39 0
-11 -29 33 37 -39 0
-11 -29 33 -37 39 0
-11 -29 -33 37 39 0
-11 -29 -33 -37 -39 0
3 12 30 39 -40 0
3 12 30 -39 40 0
3 12 -30 39 40 0
3 12 -30 -39 -40 0
3 -12 30 39 40 0
3 -12 30 -39 -40 0
3 -12 -30 39 -40 0
3 -12 -30 -39 40 0
-3 12 30 39 40 0
-3 12 30 -39 -40 0
-3 12 -30 39 -40 0
-3 12 -30 -39 40 0
-3 -12 30 39 -40 0
-3 -12 30 -39 40 0
-3 -12 -30 39 40 0
-3 -12 -30 -39 -40 0
13 31 -40 0
13 -31 40 0
-13 31 40 0
-13 -31 -40 0
4 28 -38 0
4 -28 38 0
-4 28 38 0
-4 -28 -38 0